data;
set K:= K1 K2 K3 K4 K5 K6 K7 K8 K9 K10 K11 K12 K13 K14 K15 ;

set F:= F1 F2 F3 ;

set Q:= Q1 Q2 ;

param T:= 45;
param V: 
	K1  K2  K3  K4  K5  K6  K7  K8  K9  K10 K11 K12 K13 K14 K15 :=
Q1	1   1   1   1   1   1   1   1   1   0   0   0   0   0   0   
Q2	0   0   0   0   0   0   0   0   0   1   1   1   1   1   1   
; # if resorce k is of type q

param TF:= 
K1 6
K2 6
K3 6
K4 6
K5 6
K6 6
K7 6
K8 6
K9 6
K10 12
K11 12
K12 12
K13 12
K14 12
K15 12
; # number of continuous time slots resource can fly

param TR:= 
K1 2
K2 2
K3 2
K4 2
K5 2
K6 2
K7 2
K8 2
K9 2
K10 4
K11 4
K12 4
K13 4
K14 4
K15 4
; #  number of continuous time slots resource k needs to rest between flights

param P:= 
K1 36
K2 36
K3 36
K4 36
K5 36
K6 36
K7 36
K8 36
K9 36
K10 36
K11 36
K12 36
K13 36
K14 36
K15 36
; #  number of continuous time slots a pilot can be present including rest times for resource k 

param N:= 
K1 4
K2 4
K3 4
K4 4
K5 4
K6 4
K7 4
K8 4
K9 4
K10 2
K11 2
K12 2
K13 2
K14 1
K15 1
; # max number of flights resource k can fly in the total time period

param A: 
	K1  K2  K3  K4  K5  K6  K7  K8  K9  K10 K11 K12 K13 K14 K15 :=
1	1   1   1   1   1   1   1   1   1   1   1   1   1   1   0   
2	1   1   1   1   1   1   1   1   1   1   1   1   1   1   0   
3	1   1   1   1   1   1   1   1   1   1   1   1   1   1   0   
4	1   1   1   1   1   1   1   1   1   1   1   1   1   1   0   
5	1   1   1   1   1   1   1   1   1   1   1   1   1   1   0   
6	1   1   1   1   1   1   1   1   1   1   1   1   1   1   0   
7	1   1   1   1   1   1   1   1   1   1   1   1   1   1   0   
8	1   1   1   1   1   1   1   1   1   1   1   1   1   1   0   
9	1   1   1   1   1   1   1   1   1   1   1   1   1   1   0   
10	1   1   1   1   1   1   1   1   1   1   1   1   1   1   0   
11	1   1   1   1   1   1   1   1   1   1   1   1   1   1   0   
12	1   1   1   1   1   1   1   1   1   1   1   1   1   1   0   
13	1   1   1   1   1   1   1   1   1   1   1   1   1   1   0   
14	1   1   1   1   1   1   1   1   1   1   1   1   1   1   0   
15	1   1   1   1   1   1   1   1   1   1   1   1   1   1   1   
16	1   1   1   1   1   1   1   1   1   1   1   1   1   1   1   
17	1   1   1   1   1   1   1   1   1   1   1   1   1   1   1   
18	1   1   1   1   1   1   1   1   1   1   1   1   1   1   1   
19	1   1   1   1   1   1   1   1   1   1   1   1   1   1   1   
20	1   1   1   1   1   1   1   1   1   1   1   1   1   1   1   
21	1   1   1   1   1   1   1   1   1   1   1   1   1   1   1   
22	1   1   1   1   1   1   1   1   1   1   1   1   1   1   1   
23	1   1   1   1   1   1   1   1   1   1   1   1   1   1   1   
24	1   1   1   1   1   1   1   1   1   1   1   1   1   1   1   
25	1   1   1   1   1   1   1   1   1   1   1   1   1   1   1   
26	1   1   1   1   1   1   1   1   1   1   1   1   1   1   1   
27	1   1   1   1   1   1   1   1   1   1   1   1   1   1   1   
28	1   1   1   1   1   1   1   1   1   1   1   1   1   1   1   
29	1   1   1   1   1   1   1   1   1   1   1   1   1   1   1   
30	1   1   1   1   1   1   1   1   1   1   1   1   1   1   1   
31	1   1   1   1   1   1   1   1   1   1   1   1   1   1   1   
32	1   1   1   1   1   1   1   1   1   1   1   1   1   1   1   
33	1   1   1   1   1   1   1   1   1   1   1   1   1   1   1   
34	1   1   1   1   1   1   1   1   1   1   1   1   1   1   1   
35	1   1   1   1   1   1   1   1   1   1   1   1   1   1   1   
36	1   1   1   1   1   1   1   1   1   1   1   1   1   1   1   
37	1   1   1   1   1   1   1   1   1   1   1   1   1   1   1   
38	1   1   1   1   1   1   1   1   1   1   1   1   1   0   1   
39	1   1   1   1   1   1   1   1   1   1   1   1   1   0   1   
40	1   1   1   1   1   1   1   1   1   1   1   1   1   0   1   
41	1   1   1   1   1   1   1   1   1   1   1   1   1   0   1   
42	1   1   1   1   1   1   1   1   1   1   1   1   1   0   1   
43	1   1   1   1   1   1   1   1   1   1   1   1   1   0   1   
44	1   1   1   1   1   1   1   1   1   1   1   1   1   0   1   
45	1   1   1   1   1   1   1   1   1   1   1   1   1   0   1   
; # availability of resorce k in time slot t

param B: 
	F1  F2  F3  :=
Q1	0   0   0   
Q2	0   0   0   
; # if front f requires resources of type q

param U: 
	F1  F2  F3  :=
K1	0   0   0   
K2	0   0   0   
K3	0   0   0   
K4	0   0   0   
K5	0   0   0   
K6	0   0   0   
K7	0   0   0   
K8	0   0   0   
K9	0   0   0   
K10	1   1   1   
K11	1   1   1   
K12	0   0   0   
K13	2   2   2   
K14	0   0   0   
K15	2   2   2   
; # transit time of resource

param C:= 
K1 900
K2 900
K3 900
K4 900
K5 900
K6 1500
K7 1500
K8 4500
K9 4500
K10 5500
K11 5500
K12 5500
K13 5500
K14 5500
K15 5500
; #  water capacity of resource k

param S:= 
F1 7
F2 8
F3 8
; # max number of resources that can fly at front f in the same time slot

param D:= 

[*,*,F1 ]:  K1    K2    K3    K4    K5    K6    K7    K8    K9    K10   K11   K12   K13   K14   K15   :=
1           1.47  1.47  1.47  1.47  1.47  1.47  1.47  1.17  1.17  0.88  0.88  0.88  0.88  0.88  0.88  
2           1.47  1.47  1.47  1.47  1.47  1.47  1.47  1.17  1.17  0.88  0.88  0.88  0.88  0.88  0.88  
3           1.47  1.47  1.47  1.47  1.47  1.47  1.47  1.17  1.17  0.88  0.88  0.88  0.88  0.88  0.88  
4           1.47  1.47  1.47  1.47  1.47  1.47  1.47  1.17  1.17  0.88  0.88  0.88  0.88  0.88  0.88  
5           1.47  1.47  1.47  1.47  1.47  1.47  1.47  1.17  1.17  0.88  0.88  0.88  0.88  0.88  0.88  
6           1.47  1.47  1.47  1.47  1.47  1.47  1.47  1.17  1.17  0.88  0.88  0.88  0.88  0.88  0.88  
7           1.47  1.47  1.47  1.47  1.47  1.47  1.47  1.17  1.17  0.88  0.88  0.88  0.88  0.88  0.88  
8           1.47  1.47  1.47  1.47  1.47  1.47  1.47  1.17  1.17  0.88  0.88  0.88  0.88  0.88  0.88  
9           1.47  1.47  1.47  1.47  1.47  1.47  1.47  1.17  1.17  0.88  0.88  0.88  0.88  0.88  0.88  
10          1.47  1.47  1.47  1.47  1.47  1.47  1.47  1.17  1.17  0.88  0.88  0.88  0.88  0.88  0.88  
11          1.47  1.47  1.47  1.47  1.47  1.47  1.47  1.17  1.17  0.88  0.88  0.88  0.88  0.88  0.88  
12          1.47  1.47  1.47  1.47  1.47  1.47  1.47  1.17  1.17  0.88  0.88  0.88  0.88  0.88  0.88  
13          1.47  1.47  1.47  1.47  1.47  1.47  1.47  1.17  1.17  0.88  0.88  0.88  0.88  0.88  0.88  
14          1.47  1.47  1.47  1.47  1.47  1.47  1.47  1.17  1.17  0.88  0.88  0.88  0.88  0.88  0.88  
15          1.47  1.47  1.47  1.47  1.47  1.47  1.47  1.17  1.17  0.88  0.88  0.88  0.88  0.88  0.88  
16          1.47  1.47  1.47  1.47  1.47  1.47  1.47  1.17  1.17  0.88  0.88  0.88  0.88  0.88  0.88  
17          1.47  1.47  1.47  1.47  1.47  1.47  1.47  1.17  1.17  0.88  0.88  0.88  0.88  0.88  0.88  
18          1.47  1.47  1.47  1.47  1.47  1.47  1.47  1.17  1.17  0.88  0.88  0.88  0.88  0.88  0.88  
19          1.47  1.47  1.47  1.47  1.47  1.47  1.47  1.17  1.17  0.88  0.88  0.88  0.88  0.88  0.88  
20          1.47  1.47  1.47  1.47  1.47  1.47  1.47  1.17  1.17  0.88  0.88  0.88  0.88  0.88  0.88  
21          1.47  1.47  1.47  1.47  1.47  1.47  1.47  1.17  1.17  0.88  0.88  0.88  0.88  0.88  0.88  
22          1.47  1.47  1.47  1.47  1.47  1.47  1.47  1.17  1.17  0.88  0.88  0.88  0.88  0.88  0.88  
23          1.47  1.47  1.47  1.47  1.47  1.47  1.47  1.17  1.17  0.88  0.88  0.88  0.88  0.88  0.88  
24          1.47  1.47  1.47  1.47  1.47  1.47  1.47  1.17  1.17  0.88  0.88  0.88  0.88  0.88  0.88  
25          1.40  1.40  1.40  1.40  1.40  1.40  1.40  1.11  1.11  0.84  0.84  0.84  0.84  0.84  0.84  
26          1.40  1.40  1.40  1.40  1.40  1.40  1.40  1.11  1.11  0.84  0.84  0.84  0.84  0.84  0.84  
27          1.40  1.40  1.40  1.40  1.40  1.40  1.40  1.11  1.11  0.84  0.84  0.84  0.84  0.84  0.84  
28          1.40  1.40  1.40  1.40  1.40  1.40  1.40  1.11  1.11  0.84  0.84  0.84  0.84  0.84  0.84  
29          1.40  1.40  1.40  1.40  1.40  1.40  1.40  1.11  1.11  0.84  0.84  0.84  0.84  0.84  0.84  
30          1.40  1.40  1.40  1.40  1.40  1.40  1.40  1.11  1.11  0.84  0.84  0.84  0.84  0.84  0.84  
31          1.40  1.40  1.40  1.40  1.40  1.40  1.40  1.11  1.11  0.84  0.84  0.84  0.84  0.84  0.84  
32          1.40  1.40  1.40  1.40  1.40  1.40  1.40  1.11  1.11  0.84  0.84  0.84  0.84  0.84  0.84  
33          1.40  1.40  1.40  1.40  1.40  1.40  1.40  1.11  1.11  0.84  0.84  0.84  0.84  0.84  0.84  
34          1.47  1.47  1.47  1.47  1.47  1.47  1.47  1.17  1.17  0.88  0.88  0.88  0.88  0.88  0.88  
35          1.47  1.47  1.47  1.47  1.47  1.47  1.47  1.17  1.17  0.88  0.88  0.88  0.88  0.88  0.88  
36          1.47  1.47  1.47  1.47  1.47  1.47  1.47  1.17  1.17  0.88  0.88  0.88  0.88  0.88  0.88  
37          1.47  1.47  1.47  1.47  1.47  1.47  1.47  1.17  1.17  0.88  0.88  0.88  0.88  0.88  0.88  
38          1.47  1.47  1.47  1.47  1.47  1.47  1.47  1.17  1.17  0.88  0.88  0.88  0.88  0.88  0.88  
39          1.47  1.47  1.47  1.47  1.47  1.47  1.47  1.17  1.17  0.88  0.88  0.88  0.88  0.88  0.88  
40          1.47  1.47  1.47  1.47  1.47  1.47  1.47  1.17  1.17  0.88  0.88  0.88  0.88  0.88  0.88  
41          1.47  1.47  1.47  1.47  1.47  1.47  1.47  1.17  1.17  0.88  0.88  0.88  0.88  0.88  0.88  
42          1.47  1.47  1.47  1.47  1.47  1.47  1.47  1.17  1.17  0.88  0.88  0.88  0.88  0.88  0.88  
43          1.47  1.47  1.47  1.47  1.47  1.47  1.47  1.17  1.17  0.88  0.88  0.88  0.88  0.88  0.88  
44          1.47  1.47  1.47  1.47  1.47  1.47  1.47  1.17  1.17  0.88  0.88  0.88  0.88  0.88  0.88  
45          1.47  1.47  1.47  1.47  1.47  1.47  1.47  1.17  1.17  0.88  0.88  0.88  0.88  0.88  0.88  

[*,*,F2 ]:  K1    K2    K3    K4    K5    K6    K7    K8    K9    K10   K11   K12   K13   K14   K15   :=
1           2.00  2.00  2.00  2.00  2.00  2.00  2.00  1.60  1.60  1.20  1.20  1.20  1.20  1.20  1.20  
2           2.00  2.00  2.00  2.00  2.00  2.00  2.00  1.60  1.60  1.20  1.20  1.20  1.20  1.20  1.20  
3           2.00  2.00  2.00  2.00  2.00  2.00  2.00  1.60  1.60  1.20  1.20  1.20  1.20  1.20  1.20  
4           2.00  2.00  2.00  2.00  2.00  2.00  2.00  1.60  1.60  1.20  1.20  1.20  1.20  1.20  1.20  
5           2.00  2.00  2.00  2.00  2.00  2.00  2.00  1.60  1.60  1.20  1.20  1.20  1.20  1.20  1.20  
6           2.00  2.00  2.00  2.00  2.00  2.00  2.00  1.60  1.60  1.20  1.20  1.20  1.20  1.20  1.20  
7           2.00  2.00  2.00  2.00  2.00  2.00  2.00  1.60  1.60  1.20  1.20  1.20  1.20  1.20  1.20  
8           2.00  2.00  2.00  2.00  2.00  2.00  2.00  1.60  1.60  1.20  1.20  1.20  1.20  1.20  1.20  
9           2.00  2.00  2.00  2.00  2.00  2.00  2.00  1.60  1.60  1.20  1.20  1.20  1.20  1.20  1.20  
10          2.00  2.00  2.00  2.00  2.00  2.00  2.00  1.60  1.60  1.20  1.20  1.20  1.20  1.20  1.20  
11          2.00  2.00  2.00  2.00  2.00  2.00  2.00  1.60  1.60  1.20  1.20  1.20  1.20  1.20  1.20  
12          2.00  2.00  2.00  2.00  2.00  2.00  2.00  1.60  1.60  1.20  1.20  1.20  1.20  1.20  1.20  
13          2.00  2.00  2.00  2.00  2.00  2.00  2.00  1.60  1.60  1.20  1.20  1.20  1.20  1.20  1.20  
14          2.00  2.00  2.00  2.00  2.00  2.00  2.00  1.60  1.60  1.20  1.20  1.20  1.20  1.20  1.20  
15          2.00  2.00  2.00  2.00  2.00  2.00  2.00  1.60  1.60  1.20  1.20  1.20  1.20  1.20  1.20  
16          2.00  2.00  2.00  2.00  2.00  2.00  2.00  1.60  1.60  1.20  1.20  1.20  1.20  1.20  1.20  
17          2.00  2.00  2.00  2.00  2.00  2.00  2.00  1.60  1.60  1.20  1.20  1.20  1.20  1.20  1.20  
18          2.00  2.00  2.00  2.00  2.00  2.00  2.00  1.60  1.60  1.20  1.20  1.20  1.20  1.20  1.20  
19          2.00  2.00  2.00  2.00  2.00  2.00  2.00  1.60  1.60  1.20  1.20  1.20  1.20  1.20  1.20  
20          2.00  2.00  2.00  2.00  2.00  2.00  2.00  1.60  1.60  1.20  1.20  1.20  1.20  1.20  1.20  
21          2.00  2.00  2.00  2.00  2.00  2.00  2.00  1.60  1.60  1.20  1.20  1.20  1.20  1.20  1.20  
22          2.00  2.00  2.00  2.00  2.00  2.00  2.00  1.60  1.60  1.20  1.20  1.20  1.20  1.20  1.20  
23          2.00  2.00  2.00  2.00  2.00  2.00  2.00  1.60  1.60  1.20  1.20  1.20  1.20  1.20  1.20  
24          2.00  2.00  2.00  2.00  2.00  2.00  2.00  1.60  1.60  1.20  1.20  1.20  1.20  1.20  1.20  
25          1.90  1.90  1.90  1.90  1.90  1.90  1.90  1.52  1.52  1.14  1.14  1.14  1.14  1.14  1.14  
26          1.90  1.90  1.90  1.90  1.90  1.90  1.90  1.52  1.52  1.14  1.14  1.14  1.14  1.14  1.14  
27          1.90  1.90  1.90  1.90  1.90  1.90  1.90  1.52  1.52  1.14  1.14  1.14  1.14  1.14  1.14  
28          1.90  1.90  1.90  1.90  1.90  1.90  1.90  1.52  1.52  1.14  1.14  1.14  1.14  1.14  1.14  
29          1.90  1.90  1.90  1.90  1.90  1.90  1.90  1.52  1.52  1.14  1.14  1.14  1.14  1.14  1.14  
30          1.90  1.90  1.90  1.90  1.90  1.90  1.90  1.52  1.52  1.14  1.14  1.14  1.14  1.14  1.14  
31          1.90  1.90  1.90  1.90  1.90  1.90  1.90  1.52  1.52  1.14  1.14  1.14  1.14  1.14  1.14  
32          1.90  1.90  1.90  1.90  1.90  1.90  1.90  1.52  1.52  1.14  1.14  1.14  1.14  1.14  1.14  
33          1.90  1.90  1.90  1.90  1.90  1.90  1.90  1.52  1.52  1.14  1.14  1.14  1.14  1.14  1.14  
34          2.00  2.00  2.00  2.00  2.00  2.00  2.00  1.60  1.60  1.20  1.20  1.20  1.20  1.20  1.20  
35          2.00  2.00  2.00  2.00  2.00  2.00  2.00  1.60  1.60  1.20  1.20  1.20  1.20  1.20  1.20  
36          2.00  2.00  2.00  2.00  2.00  2.00  2.00  1.60  1.60  1.20  1.20  1.20  1.20  1.20  1.20  
37          2.00  2.00  2.00  2.00  2.00  2.00  2.00  1.60  1.60  1.20  1.20  1.20  1.20  1.20  1.20  
38          2.00  2.00  2.00  2.00  2.00  2.00  2.00  1.60  1.60  1.20  1.20  1.20  1.20  1.20  1.20  
39          2.00  2.00  2.00  2.00  2.00  2.00  2.00  1.60  1.60  1.20  1.20  1.20  1.20  1.20  1.20  
40          2.00  2.00  2.00  2.00  2.00  2.00  2.00  1.60  1.60  1.20  1.20  1.20  1.20  1.20  1.20  
41          2.00  2.00  2.00  2.00  2.00  2.00  2.00  1.60  1.60  1.20  1.20  1.20  1.20  1.20  1.20  
42          2.00  2.00  2.00  2.00  2.00  2.00  2.00  1.60  1.60  1.20  1.20  1.20  1.20  1.20  1.20  
43          2.00  2.00  2.00  2.00  2.00  2.00  2.00  1.60  1.60  1.20  1.20  1.20  1.20  1.20  1.20  
44          2.00  2.00  2.00  2.00  2.00  2.00  2.00  1.60  1.60  1.20  1.20  1.20  1.20  1.20  1.20  
45          2.00  2.00  2.00  2.00  2.00  2.00  2.00  1.60  1.60  1.20  1.20  1.20  1.20  1.20  1.20  

[*,*,F3 ]:  K1    K2    K3    K4    K5    K6    K7    K8    K9    K10   K11   K12   K13   K14   K15   :=
1           1.49  1.49  1.49  1.49  1.49  1.49  1.49  1.18  1.18  0.89  0.89  0.89  0.89  0.89  0.89  
2           1.49  1.49  1.49  1.49  1.49  1.49  1.49  1.18  1.18  0.89  0.89  0.89  0.89  0.89  0.89  
3           1.49  1.49  1.49  1.49  1.49  1.49  1.49  1.18  1.18  0.89  0.89  0.89  0.89  0.89  0.89  
4           1.49  1.49  1.49  1.49  1.49  1.49  1.49  1.18  1.18  0.89  0.89  0.89  0.89  0.89  0.89  
5           1.49  1.49  1.49  1.49  1.49  1.49  1.49  1.18  1.18  0.89  0.89  0.89  0.89  0.89  0.89  
6           1.49  1.49  1.49  1.49  1.49  1.49  1.49  1.18  1.18  0.89  0.89  0.89  0.89  0.89  0.89  
7           1.49  1.49  1.49  1.49  1.49  1.49  1.49  1.18  1.18  0.89  0.89  0.89  0.89  0.89  0.89  
8           1.49  1.49  1.49  1.49  1.49  1.49  1.49  1.18  1.18  0.89  0.89  0.89  0.89  0.89  0.89  
9           1.49  1.49  1.49  1.49  1.49  1.49  1.49  1.18  1.18  0.89  0.89  0.89  0.89  0.89  0.89  
10          1.49  1.49  1.49  1.49  1.49  1.49  1.49  1.18  1.18  0.89  0.89  0.89  0.89  0.89  0.89  
11          1.49  1.49  1.49  1.49  1.49  1.49  1.49  1.18  1.18  0.89  0.89  0.89  0.89  0.89  0.89  
12          1.49  1.49  1.49  1.49  1.49  1.49  1.49  1.18  1.18  0.89  0.89  0.89  0.89  0.89  0.89  
13          1.49  1.49  1.49  1.49  1.49  1.49  1.49  1.18  1.18  0.89  0.89  0.89  0.89  0.89  0.89  
14          1.49  1.49  1.49  1.49  1.49  1.49  1.49  1.18  1.18  0.89  0.89  0.89  0.89  0.89  0.89  
15          1.49  1.49  1.49  1.49  1.49  1.49  1.49  1.18  1.18  0.89  0.89  0.89  0.89  0.89  0.89  
16          1.49  1.49  1.49  1.49  1.49  1.49  1.49  1.18  1.18  0.89  0.89  0.89  0.89  0.89  0.89  
17          1.49  1.49  1.49  1.49  1.49  1.49  1.49  1.18  1.18  0.89  0.89  0.89  0.89  0.89  0.89  
18          1.49  1.49  1.49  1.49  1.49  1.49  1.49  1.18  1.18  0.89  0.89  0.89  0.89  0.89  0.89  
19          1.49  1.49  1.49  1.49  1.49  1.49  1.49  1.18  1.18  0.89  0.89  0.89  0.89  0.89  0.89  
20          1.49  1.49  1.49  1.49  1.49  1.49  1.49  1.18  1.18  0.89  0.89  0.89  0.89  0.89  0.89  
21          1.49  1.49  1.49  1.49  1.49  1.49  1.49  1.18  1.18  0.89  0.89  0.89  0.89  0.89  0.89  
22          1.49  1.49  1.49  1.49  1.49  1.49  1.49  1.18  1.18  0.89  0.89  0.89  0.89  0.89  0.89  
23          1.49  1.49  1.49  1.49  1.49  1.49  1.49  1.18  1.18  0.89  0.89  0.89  0.89  0.89  0.89  
24          1.49  1.49  1.49  1.49  1.49  1.49  1.49  1.18  1.18  0.89  0.89  0.89  0.89  0.89  0.89  
25          1.41  1.41  1.41  1.41  1.41  1.41  1.41  1.12  1.12  0.85  0.85  0.85  0.85  0.85  0.85  
26          1.41  1.41  1.41  1.41  1.41  1.41  1.41  1.12  1.12  0.85  0.85  0.85  0.85  0.85  0.85  
27          1.41  1.41  1.41  1.41  1.41  1.41  1.41  1.12  1.12  0.85  0.85  0.85  0.85  0.85  0.85  
28          1.41  1.41  1.41  1.41  1.41  1.41  1.41  1.12  1.12  0.85  0.85  0.85  0.85  0.85  0.85  
29          1.41  1.41  1.41  1.41  1.41  1.41  1.41  1.12  1.12  0.85  0.85  0.85  0.85  0.85  0.85  
30          1.41  1.41  1.41  1.41  1.41  1.41  1.41  1.12  1.12  0.85  0.85  0.85  0.85  0.85  0.85  
31          1.41  1.41  1.41  1.41  1.41  1.41  1.41  1.12  1.12  0.85  0.85  0.85  0.85  0.85  0.85  
32          1.41  1.41  1.41  1.41  1.41  1.41  1.41  1.12  1.12  0.85  0.85  0.85  0.85  0.85  0.85  
33          1.41  1.41  1.41  1.41  1.41  1.41  1.41  1.12  1.12  0.85  0.85  0.85  0.85  0.85  0.85  
34          1.49  1.49  1.49  1.49  1.49  1.49  1.49  1.18  1.18  0.89  0.89  0.89  0.89  0.89  0.89  
35          1.49  1.49  1.49  1.49  1.49  1.49  1.49  1.18  1.18  0.89  0.89  0.89  0.89  0.89  0.89  
36          1.49  1.49  1.49  1.49  1.49  1.49  1.49  1.18  1.18  0.89  0.89  0.89  0.89  0.89  0.89  
37          1.49  1.49  1.49  1.49  1.49  1.49  1.49  1.18  1.18  0.89  0.89  0.89  0.89  0.89  0.89  
38          1.49  1.49  1.49  1.49  1.49  1.49  1.49  1.18  1.18  0.89  0.89  0.89  0.89  0.89  0.89  
39          1.49  1.49  1.49  1.49  1.49  1.49  1.49  1.18  1.18  0.89  0.89  0.89  0.89  0.89  0.89  
40          1.49  1.49  1.49  1.49  1.49  1.49  1.49  1.18  1.18  0.89  0.89  0.89  0.89  0.89  0.89  
41          1.49  1.49  1.49  1.49  1.49  1.49  1.49  1.18  1.18  0.89  0.89  0.89  0.89  0.89  0.89  
42          1.49  1.49  1.49  1.49  1.49  1.49  1.49  1.18  1.18  0.89  0.89  0.89  0.89  0.89  0.89  
43          1.49  1.49  1.49  1.49  1.49  1.49  1.49  1.18  1.18  0.89  0.89  0.89  0.89  0.89  0.89  
44          1.49  1.49  1.49  1.49  1.49  1.49  1.49  1.18  1.18  0.89  0.89  0.89  0.89  0.89  0.89  
45          1.49  1.49  1.49  1.49  1.49  1.49  1.49  1.18  1.18  0.89  0.89  0.89  0.89  0.89  0.89  
; # downloads resource k can do at front f in time t if intermediate time slot

param E:= 

[*,*,F1 ]:  K1    K2    K3    K4    K5    K6    K7    K8    K9    K10   K11   K12   K13   K14   K15   :=
1           0.25  0.69  0.21  0.06  0.04  0.31  0.57  0.55  0.55  0.18  0.23  0.13  0.12  0.13  0.39  
2           0.25  0.69  0.21  0.06  0.04  0.31  0.57  0.55  0.55  0.18  0.23  0.13  0.12  0.13  0.39  
3           0.25  0.69  0.21  0.06  0.04  0.31  0.57  0.55  0.55  0.18  0.23  0.13  0.12  0.13  0.39  
4           0.25  0.69  0.21  0.06  0.04  0.31  0.57  0.55  0.55  0.18  0.23  0.13  0.12  0.13  0.39  
5           0.25  0.69  0.21  0.06  0.04  0.31  0.57  0.55  0.55  0.18  0.23  0.13  0.12  0.13  0.39  
6           0.25  0.69  0.21  0.06  0.04  0.31  0.57  0.55  0.55  0.18  0.23  0.13  0.12  0.13  0.39  
7           0.25  0.69  0.21  0.06  0.04  0.31  0.57  0.55  0.55  0.18  0.23  0.13  0.12  0.13  0.39  
8           0.25  0.69  0.21  0.06  0.04  0.31  0.57  0.55  0.55  0.18  0.23  0.13  0.12  0.13  0.39  
9           0.25  0.69  0.21  0.06  0.04  0.31  0.57  0.55  0.55  0.18  0.23  0.13  0.12  0.13  0.39  
10          0.25  0.69  0.21  0.06  0.04  0.31  0.57  0.55  0.55  0.18  0.23  0.13  0.12  0.13  0.39  
11          0.25  0.69  0.21  0.06  0.04  0.31  0.57  0.55  0.55  0.18  0.23  0.13  0.12  0.13  0.39  
12          0.25  0.69  0.21  0.06  0.04  0.31  0.57  0.55  0.55  0.18  0.23  0.13  0.12  0.13  0.39  
13          0.25  0.69  0.21  0.06  0.04  0.31  0.57  0.55  0.55  0.18  0.23  0.13  0.12  0.13  0.39  
14          0.25  0.69  0.21  0.06  0.04  0.31  0.57  0.55  0.55  0.18  0.23  0.13  0.12  0.13  0.39  
15          0.25  0.69  0.21  0.06  0.04  0.31  0.57  0.55  0.55  0.18  0.23  0.13  0.12  0.13  0.39  
16          0.25  0.69  0.21  0.06  0.04  0.31  0.57  0.55  0.55  0.18  0.23  0.13  0.12  0.13  0.39  
17          0.25  0.69  0.21  0.06  0.04  0.31  0.57  0.55  0.55  0.18  0.23  0.13  0.12  0.13  0.39  
18          0.25  0.69  0.21  0.06  0.04  0.31  0.57  0.55  0.55  0.18  0.23  0.13  0.12  0.13  0.39  
19          0.25  0.69  0.21  0.06  0.04  0.31  0.57  0.55  0.55  0.18  0.23  0.13  0.12  0.13  0.39  
20          0.25  0.69  0.21  0.06  0.04  0.31  0.57  0.55  0.55  0.18  0.23  0.13  0.12  0.13  0.39  
21          0.25  0.69  0.21  0.06  0.04  0.31  0.57  0.55  0.55  0.18  0.23  0.13  0.12  0.13  0.39  
22          0.25  0.69  0.21  0.06  0.04  0.31  0.57  0.55  0.55  0.18  0.23  0.13  0.12  0.13  0.39  
23          0.25  0.69  0.21  0.06  0.04  0.31  0.57  0.55  0.55  0.18  0.23  0.13  0.12  0.13  0.39  
24          0.25  0.69  0.21  0.06  0.04  0.31  0.57  0.55  0.55  0.18  0.23  0.13  0.12  0.13  0.39  
25          0.24  0.66  0.20  0.06  0.04  0.29  0.54  0.52  0.52  0.17  0.22  0.13  0.12  0.13  0.37  
26          0.24  0.66  0.20  0.06  0.04  0.29  0.54  0.52  0.52  0.17  0.22  0.13  0.12  0.13  0.37  
27          0.24  0.66  0.20  0.06  0.04  0.29  0.54  0.52  0.52  0.17  0.22  0.13  0.12  0.13  0.37  
28          0.24  0.66  0.20  0.06  0.04  0.29  0.54  0.52  0.52  0.17  0.22  0.13  0.12  0.13  0.37  
29          0.24  0.66  0.20  0.06  0.04  0.29  0.54  0.52  0.52  0.17  0.22  0.13  0.12  0.13  0.37  
30          0.24  0.66  0.20  0.06  0.04  0.29  0.54  0.52  0.52  0.17  0.22  0.13  0.12  0.13  0.37  
31          0.24  0.66  0.20  0.06  0.04  0.29  0.54  0.52  0.52  0.17  0.22  0.13  0.12  0.13  0.37  
32          0.24  0.66  0.20  0.06  0.04  0.29  0.54  0.52  0.52  0.17  0.22  0.13  0.12  0.13  0.37  
33          0.24  0.66  0.20  0.06  0.04  0.29  0.54  0.52  0.52  0.17  0.22  0.13  0.12  0.13  0.37  
34          0.25  0.69  0.21  0.06  0.04  0.31  0.57  0.55  0.55  0.18  0.23  0.13  0.12  0.13  0.39  
35          0.25  0.69  0.21  0.06  0.04  0.31  0.57  0.55  0.55  0.18  0.23  0.13  0.12  0.13  0.39  
36          0.25  0.69  0.21  0.06  0.04  0.31  0.57  0.55  0.55  0.18  0.23  0.13  0.12  0.13  0.39  
37          0.25  0.69  0.21  0.06  0.04  0.31  0.57  0.55  0.55  0.18  0.23  0.13  0.12  0.13  0.39  
38          0.25  0.69  0.21  0.06  0.04  0.31  0.57  0.55  0.55  0.18  0.23  0.13  0.12  0.13  0.39  
39          0.25  0.69  0.21  0.06  0.04  0.31  0.57  0.55  0.55  0.18  0.23  0.13  0.12  0.13  0.39  
40          0.25  0.69  0.21  0.06  0.04  0.31  0.57  0.55  0.55  0.18  0.23  0.13  0.12  0.13  0.39  
41          0.25  0.69  0.21  0.06  0.04  0.31  0.57  0.55  0.55  0.18  0.23  0.13  0.12  0.13  0.39  
42          0.25  0.69  0.21  0.06  0.04  0.31  0.57  0.55  0.55  0.18  0.23  0.13  0.12  0.13  0.39  
43          0.25  0.69  0.21  0.06  0.04  0.31  0.57  0.55  0.55  0.18  0.23  0.13  0.12  0.13  0.39  
44          0.25  0.69  0.21  0.06  0.04  0.31  0.57  0.55  0.55  0.18  0.23  0.13  0.12  0.13  0.39  
45          0.25  0.69  0.21  0.06  0.04  0.31  0.57  0.55  0.55  0.18  0.23  0.13  0.12  0.13  0.39  

[*,*,F2 ]:  K1    K2    K3    K4    K5    K6    K7    K8    K9    K10   K11   K12   K13   K14   K15   :=
1           0.22  0.80  0.32  0.04  0.00  0.46  0.92  0.67  0.80  0.23  0.35  0.11  0.18  0.19  0.54  
2           0.22  0.80  0.32  0.04  0.00  0.46  0.92  0.67  0.80  0.23  0.35  0.11  0.18  0.19  0.54  
3           0.22  0.80  0.32  0.04  0.00  0.46  0.92  0.67  0.80  0.23  0.35  0.11  0.18  0.19  0.54  
4           0.22  0.80  0.32  0.04  0.00  0.46  0.92  0.67  0.80  0.23  0.35  0.11  0.18  0.19  0.54  
5           0.22  0.80  0.32  0.04  0.00  0.46  0.92  0.67  0.80  0.23  0.35  0.11  0.18  0.19  0.54  
6           0.22  0.80  0.32  0.04  0.00  0.46  0.92  0.67  0.80  0.23  0.35  0.11  0.18  0.19  0.54  
7           0.22  0.80  0.32  0.04  0.00  0.46  0.92  0.67  0.80  0.23  0.35  0.11  0.18  0.19  0.54  
8           0.22  0.80  0.32  0.04  0.00  0.46  0.92  0.67  0.80  0.23  0.35  0.11  0.18  0.19  0.54  
9           0.22  0.80  0.32  0.04  0.00  0.46  0.92  0.67  0.80  0.23  0.35  0.11  0.18  0.19  0.54  
10          0.22  0.80  0.32  0.04  0.00  0.46  0.92  0.67  0.80  0.23  0.35  0.11  0.18  0.19  0.54  
11          0.22  0.80  0.32  0.04  0.00  0.46  0.92  0.67  0.80  0.23  0.35  0.11  0.18  0.19  0.54  
12          0.22  0.80  0.32  0.04  0.00  0.46  0.92  0.67  0.80  0.23  0.35  0.11  0.18  0.19  0.54  
13          0.22  0.80  0.32  0.04  0.00  0.46  0.92  0.67  0.80  0.23  0.35  0.11  0.18  0.19  0.54  
14          0.22  0.80  0.32  0.04  0.00  0.46  0.92  0.67  0.80  0.23  0.35  0.11  0.18  0.19  0.54  
15          0.22  0.80  0.32  0.04  0.00  0.46  0.92  0.67  0.80  0.23  0.35  0.11  0.18  0.19  0.54  
16          0.22  0.80  0.32  0.04  0.00  0.46  0.92  0.67  0.80  0.23  0.35  0.11  0.18  0.19  0.54  
17          0.22  0.80  0.32  0.04  0.00  0.46  0.92  0.67  0.80  0.23  0.35  0.11  0.18  0.19  0.54  
18          0.22  0.80  0.32  0.04  0.00  0.46  0.92  0.67  0.80  0.23  0.35  0.11  0.18  0.19  0.54  
19          0.22  0.80  0.32  0.04  0.00  0.46  0.92  0.67  0.80  0.23  0.35  0.11  0.18  0.19  0.54  
20          0.22  0.80  0.32  0.04  0.00  0.46  0.92  0.67  0.80  0.23  0.35  0.11  0.18  0.19  0.54  
21          0.22  0.80  0.32  0.04  0.00  0.46  0.92  0.67  0.80  0.23  0.35  0.11  0.18  0.19  0.54  
22          0.22  0.80  0.32  0.04  0.00  0.46  0.92  0.67  0.80  0.23  0.35  0.11  0.18  0.19  0.54  
23          0.22  0.80  0.32  0.04  0.00  0.46  0.92  0.67  0.80  0.23  0.35  0.11  0.18  0.19  0.54  
24          0.22  0.80  0.32  0.04  0.00  0.46  0.92  0.67  0.80  0.23  0.35  0.11  0.18  0.19  0.54  
25          0.21  0.76  0.30  0.04  0.00  0.44  0.88  0.64  0.76  0.22  0.33  0.10  0.17  0.18  0.51  
26          0.21  0.76  0.30  0.04  0.00  0.44  0.88  0.64  0.76  0.22  0.33  0.10  0.17  0.18  0.51  
27          0.21  0.76  0.30  0.04  0.00  0.44  0.88  0.64  0.76  0.22  0.33  0.10  0.17  0.18  0.51  
28          0.21  0.76  0.30  0.04  0.00  0.44  0.88  0.64  0.76  0.22  0.33  0.10  0.17  0.18  0.51  
29          0.21  0.76  0.30  0.04  0.00  0.44  0.88  0.64  0.76  0.22  0.33  0.10  0.17  0.18  0.51  
30          0.21  0.76  0.30  0.04  0.00  0.44  0.88  0.64  0.76  0.22  0.33  0.10  0.17  0.18  0.51  
31          0.21  0.76  0.30  0.04  0.00  0.44  0.88  0.64  0.76  0.22  0.33  0.10  0.17  0.18  0.51  
32          0.21  0.76  0.30  0.04  0.00  0.44  0.88  0.64  0.76  0.22  0.33  0.10  0.17  0.18  0.51  
33          0.21  0.76  0.30  0.04  0.00  0.44  0.88  0.64  0.76  0.22  0.33  0.10  0.17  0.18  0.51  
34          0.22  0.80  0.32  0.04  0.00  0.46  0.92  0.67  0.80  0.23  0.35  0.11  0.18  0.19  0.54  
35          0.22  0.80  0.32  0.04  0.00  0.46  0.92  0.67  0.80  0.23  0.35  0.11  0.18  0.19  0.54  
36          0.22  0.80  0.32  0.04  0.00  0.46  0.92  0.67  0.80  0.23  0.35  0.11  0.18  0.19  0.54  
37          0.22  0.80  0.32  0.04  0.00  0.46  0.92  0.67  0.80  0.23  0.35  0.11  0.18  0.19  0.54  
38          0.22  0.80  0.32  0.04  0.00  0.46  0.92  0.67  0.80  0.23  0.35  0.11  0.18  0.19  0.54  
39          0.22  0.80  0.32  0.04  0.00  0.46  0.92  0.67  0.80  0.23  0.35  0.11  0.18  0.19  0.54  
40          0.22  0.80  0.32  0.04  0.00  0.46  0.92  0.67  0.80  0.23  0.35  0.11  0.18  0.19  0.54  
41          0.22  0.80  0.32  0.04  0.00  0.46  0.92  0.67  0.80  0.23  0.35  0.11  0.18  0.19  0.54  
42          0.22  0.80  0.32  0.04  0.00  0.46  0.92  0.67  0.80  0.23  0.35  0.11  0.18  0.19  0.54  
43          0.22  0.80  0.32  0.04  0.00  0.46  0.92  0.67  0.80  0.23  0.35  0.11  0.18  0.19  0.54  
44          0.22  0.80  0.32  0.04  0.00  0.46  0.92  0.67  0.80  0.23  0.35  0.11  0.18  0.19  0.54  
45          0.22  0.80  0.32  0.04  0.00  0.46  0.92  0.67  0.80  0.23  0.35  0.11  0.18  0.19  0.54  

[*,*,F3 ]:  K1    K2    K3    K4    K5    K6    K7    K8    K9    K10   K11   K12   K13   K14   K15   :=
1           0.25  0.70  0.18  0.07  0.03  0.37  0.65  0.56  0.50  0.14  0.26  0.09  0.13  0.19  0.48  
2           0.25  0.70  0.18  0.07  0.03  0.37  0.65  0.56  0.50  0.14  0.26  0.09  0.13  0.19  0.48  
3           0.25  0.70  0.18  0.07  0.03  0.37  0.65  0.56  0.50  0.14  0.26  0.09  0.13  0.19  0.48  
4           0.25  0.70  0.18  0.07  0.03  0.37  0.65  0.56  0.50  0.14  0.26  0.09  0.13  0.19  0.48  
5           0.25  0.70  0.18  0.07  0.03  0.37  0.65  0.56  0.50  0.14  0.26  0.09  0.13  0.19  0.48  
6           0.25  0.70  0.18  0.07  0.03  0.37  0.65  0.56  0.50  0.14  0.26  0.09  0.13  0.19  0.48  
7           0.25  0.70  0.18  0.07  0.03  0.37  0.65  0.56  0.50  0.14  0.26  0.09  0.13  0.19  0.48  
8           0.25  0.70  0.18  0.07  0.03  0.37  0.65  0.56  0.50  0.14  0.26  0.09  0.13  0.19  0.48  
9           0.25  0.70  0.18  0.07  0.03  0.37  0.65  0.56  0.50  0.14  0.26  0.09  0.13  0.19  0.48  
10          0.25  0.70  0.18  0.07  0.03  0.37  0.65  0.56  0.50  0.14  0.26  0.09  0.13  0.19  0.48  
11          0.25  0.70  0.18  0.07  0.03  0.37  0.65  0.56  0.50  0.14  0.26  0.09  0.13  0.19  0.48  
12          0.25  0.70  0.18  0.07  0.03  0.37  0.65  0.56  0.50  0.14  0.26  0.09  0.13  0.19  0.48  
13          0.25  0.70  0.18  0.07  0.03  0.37  0.65  0.56  0.50  0.14  0.26  0.09  0.13  0.19  0.48  
14          0.25  0.70  0.18  0.07  0.03  0.37  0.65  0.56  0.50  0.14  0.26  0.09  0.13  0.19  0.48  
15          0.25  0.70  0.18  0.07  0.03  0.37  0.65  0.56  0.50  0.14  0.26  0.09  0.13  0.19  0.48  
16          0.25  0.70  0.18  0.07  0.03  0.37  0.65  0.56  0.50  0.14  0.26  0.09  0.13  0.19  0.48  
17          0.25  0.70  0.18  0.07  0.03  0.37  0.65  0.56  0.50  0.14  0.26  0.09  0.13  0.19  0.48  
18          0.25  0.70  0.18  0.07  0.03  0.37  0.65  0.56  0.50  0.14  0.26  0.09  0.13  0.19  0.48  
19          0.25  0.70  0.18  0.07  0.03  0.37  0.65  0.56  0.50  0.14  0.26  0.09  0.13  0.19  0.48  
20          0.25  0.70  0.18  0.07  0.03  0.37  0.65  0.56  0.50  0.14  0.26  0.09  0.13  0.19  0.48  
21          0.25  0.70  0.18  0.07  0.03  0.37  0.65  0.56  0.50  0.14  0.26  0.09  0.13  0.19  0.48  
22          0.25  0.70  0.18  0.07  0.03  0.37  0.65  0.56  0.50  0.14  0.26  0.09  0.13  0.19  0.48  
23          0.25  0.70  0.18  0.07  0.03  0.37  0.65  0.56  0.50  0.14  0.26  0.09  0.13  0.19  0.48  
24          0.25  0.70  0.18  0.07  0.03  0.37  0.65  0.56  0.50  0.14  0.26  0.09  0.13  0.19  0.48  
25          0.24  0.66  0.17  0.07  0.03  0.35  0.62  0.53  0.47  0.14  0.25  0.08  0.13  0.18  0.46  
26          0.24  0.66  0.17  0.07  0.03  0.35  0.62  0.53  0.47  0.14  0.25  0.08  0.13  0.18  0.46  
27          0.24  0.66  0.17  0.07  0.03  0.35  0.62  0.53  0.47  0.14  0.25  0.08  0.13  0.18  0.46  
28          0.24  0.66  0.17  0.07  0.03  0.35  0.62  0.53  0.47  0.14  0.25  0.08  0.13  0.18  0.46  
29          0.24  0.66  0.17  0.07  0.03  0.35  0.62  0.53  0.47  0.14  0.25  0.08  0.13  0.18  0.46  
30          0.24  0.66  0.17  0.07  0.03  0.35  0.62  0.53  0.47  0.14  0.25  0.08  0.13  0.18  0.46  
31          0.24  0.66  0.17  0.07  0.03  0.35  0.62  0.53  0.47  0.14  0.25  0.08  0.13  0.18  0.46  
32          0.24  0.66  0.17  0.07  0.03  0.35  0.62  0.53  0.47  0.14  0.25  0.08  0.13  0.18  0.46  
33          0.24  0.66  0.17  0.07  0.03  0.35  0.62  0.53  0.47  0.14  0.25  0.08  0.13  0.18  0.46  
34          0.25  0.70  0.18  0.07  0.03  0.37  0.65  0.56  0.50  0.14  0.26  0.09  0.13  0.19  0.48  
35          0.25  0.70  0.18  0.07  0.03  0.37  0.65  0.56  0.50  0.14  0.26  0.09  0.13  0.19  0.48  
36          0.25  0.70  0.18  0.07  0.03  0.37  0.65  0.56  0.50  0.14  0.26  0.09  0.13  0.19  0.48  
37          0.25  0.70  0.18  0.07  0.03  0.37  0.65  0.56  0.50  0.14  0.26  0.09  0.13  0.19  0.48  
38          0.25  0.70  0.18  0.07  0.03  0.37  0.65  0.56  0.50  0.14  0.26  0.09  0.13  0.19  0.48  
39          0.25  0.70  0.18  0.07  0.03  0.37  0.65  0.56  0.50  0.14  0.26  0.09  0.13  0.19  0.48  
40          0.25  0.70  0.18  0.07  0.03  0.37  0.65  0.56  0.50  0.14  0.26  0.09  0.13  0.19  0.48  
41          0.25  0.70  0.18  0.07  0.03  0.37  0.65  0.56  0.50  0.14  0.26  0.09  0.13  0.19  0.48  
42          0.25  0.70  0.18  0.07  0.03  0.37  0.65  0.56  0.50  0.14  0.26  0.09  0.13  0.19  0.48  
43          0.25  0.70  0.18  0.07  0.03  0.37  0.65  0.56  0.50  0.14  0.26  0.09  0.13  0.19  0.48  
44          0.25  0.70  0.18  0.07  0.03  0.37  0.65  0.56  0.50  0.14  0.26  0.09  0.13  0.19  0.48  
45          0.25  0.70  0.18  0.07  0.03  0.37  0.65  0.56  0.50  0.14  0.26  0.09  0.13  0.19  0.48  
; # downloads resource k can do at front f in time t if starting or ending flight

param W: 
	F1        F2        F3        :=
1	509.60    254.80    254.80    
2	2038.41   1019.21   1019.21   
3	2038.41   1019.21   1019.21   
4	2038.41   1019.21   1019.21   
5	2038.41   1019.21   1019.21   
6	2038.41   1019.21   1019.21   
7	2038.41   1019.21   1019.21   
8	2038.41   1019.21   1019.21   
9	2038.41   1019.21   1019.21   
10	2038.41   1019.21   1019.21   
11	2038.41   1019.21   1019.21   
12	2038.41   1019.21   1019.21   
13	2038.41   1019.21   1019.21   
14	2038.41   1019.21   1019.21   
15	2038.41   1019.21   1019.21   
16	2038.41   1019.21   1019.21   
17	2038.41   1019.21   1019.21   
18	2038.41   1019.21   1019.21   
19	905.96    452.98    452.98    
20	905.96    452.98    452.98    
21	905.96    452.98    452.98    
22	905.96    452.98    452.98    
23	905.96    452.98    452.98    
24	905.96    452.98    452.98    
25	905.96    452.98    452.98    
26	905.96    452.98    452.98    
27	905.96    452.98    452.98    
28	905.96    452.98    452.98    
29	905.96    452.98    452.98    
30	905.96    452.98    452.98    
31	905.96    452.98    452.98    
32	905.96    452.98    452.98    
33	905.96    452.98    452.98    
34	905.96    452.98    452.98    
35	905.96    452.98    452.98    
36	905.96    452.98    452.98    
37	905.96    452.98    452.98    
38	905.96    452.98    452.98    
39	905.96    452.98    452.98    
40	905.96    452.98    452.98    
41	905.96    452.98    452.98    
42	905.96    452.98    452.98    
43	905.96    452.98    452.98    
44	905.96    452.98    452.98    
45	226.49    113.25    113.25    
; # water needed at front f in time slot t

param M := 100000000; 

param a1:= 10000000;

param a2:= 100;

param a3:= 0.0001;
